Solver command line: ['/usr/local/bin/gurobi.sh']

Set parameter WLSAccessID
Set parameter WLSSecret
Set parameter LicenseID to value 2606900
Academic license 2606900 - for non-commercial use only - registered to so___@htwk-leipzig.de
Read LP format model from file /var/folders/jf/5sh4zzv94dxbcz8g7tg2jq5h0000gn/T/tmpumhi31r9.pyomo.lp
Reading time = 3.78 seconds
objective: 939890 rows, 878399 columns, 2125712 nonzeros
Set parameter TimeLimit to value 2000
Set parameter MIPGap to value 0.08
Gurobi Optimizer version 12.0.1 build v12.0.1rc0 (mac64[rosetta2] - Darwin 24.3.0 24D70)

CPU model: Apple M3
Thread count: 8 physical cores, 8 logical processors, using up to 8 threads

Non-default parameters:
TimeLimit  2000
MIPGap  0.08

Academic license 2606900 - for non-commercial use only - registered to so___@htwk-leipzig.de
Optimize a model with 939890 rows, 878399 columns and 2125712 nonzeros
Model fingerprint: 0x907e7659
Model has 8783 quadratic constraints
Variable types: 755424 continuous, 122975 integer (105408 binary)
Coefficient statistics:
  Matrix range     [6e-03, 1e+03]
  QMatrix range    [1e+00, 1e+00]
  Objective range  [1e-02, 4e+02]
  Bounds range     [1e+00, 3e+00]
  RHS range        [8e-05, 1e+04]
Presolve removed 773016 rows and 676389 columns
Presolve time: 0.81s
Presolved: 166874 rows, 202010 columns, 553336 nonzeros
Variable types: 131741 continuous, 70269 integer (61485 binary)
Performing another presolve...
Presolve removed 70271 rows and 70271 columns (presolve time = 10s)...
Presolve removed 70271 rows and 70271 columns
Presolve time: 9.62s
Deterministic concurrent LP optimizer: primal and dual simplex
Showing primal log only...


Root simplex log...

Iteration    Objective       Primal Inf.    Dual Inf.      Time
       0    1.9447399e+07   1.164760e+08   8.355153e+13     12s
Concurrent spin time: 0.00s

Solved with dual simplex

Root simplex log...

Iteration    Objective       Primal Inf.    Dual Inf.      Time
   64721    1.2810020e+07   0.000000e+00   0.000000e+00     14s

Root relaxation: objective 1.281002e+07, 64721 iterations, 2.53 seconds (1.57 work units)
Total elapsed time = 14.02s (DegenMoves)
Total elapsed time = 15.44s (DegenMoves)

    Nodes    |    Current Node    |     Objective Bounds      |     Work
 Expl Unexpl |  Obj  Depth IntInf | Incumbent    BestBd   Gap | It/Node Time

     0     0 1.2810e+07    0  462          - 1.2810e+07      -     -   18s
     0     0 1.2814e+07    0  580          - 1.2814e+07      -     -   80s
     0     0 1.2814e+07    0  586          - 1.2814e+07      -     -   82s
     0     0 1.2814e+07    0  587          - 1.2814e+07      -     -   82s
     0     0 1.2816e+07    0  509          - 1.2816e+07      -     -   84s
     0     0 1.2816e+07    0  524          - 1.2816e+07      -     -   86s
     0     0 1.2816e+07    0  523          - 1.2816e+07      -     -   86s
     0     0 1.2816e+07    0  525          - 1.2816e+07      -     -   86s
     0     0 1.2816e+07    0  564          - 1.2816e+07      -     -   87s
     0     0 1.2816e+07    0  568          - 1.2816e+07      -     -   89s
     0     0 1.2816e+07    0  568          - 1.2816e+07      -     -   90s
     0     0 1.2816e+07    0  571          - 1.2816e+07      -     -   90s
     0     0 1.2817e+07    0  539          - 1.2817e+07      -     -   91s
     0     0 1.2817e+07    0  554          - 1.2817e+07      -     -   92s
     0     0 1.2817e+07    0  557          - 1.2817e+07      -     -   93s
     0     0 1.2817e+07    0  559          - 1.2817e+07      -     -   93s
     0     0 1.2817e+07    0  560          - 1.2817e+07      -     -   93s
     0     0 1.2817e+07    0  524          - 1.2817e+07      -     -   94s
     0     0 1.2817e+07    0  529          - 1.2817e+07      -     -   95s
     0     0 1.2817e+07    0  526          - 1.2817e+07      -     -   96s
     0     0 1.2817e+07    0  527          - 1.2817e+07      -     -   96s
     0     0 1.2817e+07    0  530          - 1.2817e+07      -     -   97s
     0     0 1.2817e+07    0  540          - 1.2817e+07      -     -   98s
     0     0 1.2817e+07    0  542          - 1.2817e+07      -     -   98s
     0     0 1.2817e+07    0  533          - 1.2817e+07      -     -   99s
     0     0 1.2817e+07    0  536          - 1.2817e+07      -     -  100s
     0     0 1.2817e+07    0  534          - 1.2817e+07      -     -  101s
     0     0 1.2817e+07    0  540          - 1.2817e+07      -     -  101s
     0     0 1.2817e+07    0  534          - 1.2817e+07      -     -  102s
     0     0 1.2817e+07    0  425          - 1.2817e+07      -     -  104s
     0     2 1.2817e+07    0  413          - 1.2817e+07      -     -  117s
    23    59 1.2817e+07    5  445          - 1.2817e+07      -   116  120s
   125   320 1.2817e+07   12  438          - 1.2817e+07      -  32.3  129s
   319   737 1.2817e+07   24  438          - 1.2817e+07      -  13.4  139s
   736  1710 1.2818e+07   56  429          - 1.2817e+07      -   8.8  154s
  1709  2428 1.2819e+07  154  418          - 1.2817e+07      -   9.0  162s
  2427  2999 1.2819e+07  210  409          - 1.2817e+07      -   8.7  169s
  2998  3600 1.2819e+07  271  397          - 1.2817e+07      -   8.3  176s
  3599  4092 1.2819e+07  318  376          - 1.2817e+07      -   8.1  182s
  4091  4490 1.2819e+07  346  376          - 1.2817e+07      -   7.7  187s
  4489  4955 1.2819e+07  392  376          - 1.2817e+07      -   7.5  193s
  4954  5574 1.2820e+07  449  364          - 1.2817e+07      -   7.4  199s
  5573  6187 1.2820e+07  503  367          - 1.2817e+07      -   7.0  205s
  6186  6696 1.2820e+07  573  362          - 1.2817e+07      -   6.9  211s
  6695  7211 1.2820e+07  617  352          - 1.2817e+07      -   6.9  217s
  7227  7213 1.2817e+07   72  441          - 1.2817e+07      -   6.8  277s
  7228  7214 1.2819e+07  418  528          - 1.2817e+07      -   6.8  280s
  7239  7221 1.2819e+07  144  493          - 1.2817e+07      -   6.8  286s
  7246  7226 1.2820e+07  612  471          - 1.2818e+07      -   6.8  290s
  7252  7230 1.2820e+07  495  461          - 1.2818e+07      -   6.8  295s
  7256  7233 1.2818e+07  141  479          - 1.2818e+07      -   6.8  300s
  7260  7235 1.2819e+07  213  518          - 1.2818e+07      -   6.8  305s
  7264  7238 1.2820e+07  600  514          - 1.2818e+07      -   6.8  311s
  7269  7241 1.2820e+07  544  502          - 1.2818e+07      -   6.8  315s
  7272  7243 1.2819e+07  309  503          - 1.2818e+07      -   6.8  321s
  7274  7245 1.2819e+07  233  511          - 1.2818e+07      -   6.8  326s
  7278  7247 1.2819e+07  206  517          - 1.2818e+07      -   6.8  331s
  7282  7250 1.2819e+07  166  514          - 1.2818e+07      -   6.8  335s
  7286  7254 1.2820e+07  444  441          - 1.2818e+07      -  18.1  399s
  7287  7255 1.2819e+07  443  543          - 1.2818e+07      -  18.1  403s
  7290  7257 1.2819e+07  161  576          - 1.2818e+07      -  18.1  405s
  7298  7262 1.2820e+07  493  498          - 1.2818e+07      -  18.1  411s
  7300  7264 1.2819e+07  376  501          - 1.2818e+07      -  18.0  415s
  7303  7266 1.2820e+07  586  494          - 1.2818e+07      -  18.0  421s
  7305  7267 1.2819e+07  340  501          - 1.2818e+07      -  18.0  425s
  7309  7270 1.2820e+07  596  503          - 1.2818e+07      -  18.0  435s
  7313  7272 1.2820e+07  639  500          - 1.2818e+07      -  18.0  440s
  7317  7275 1.2819e+07  226  498          - 1.2818e+07      -  18.0  445s
  7320  7277 1.2820e+07  579  501          - 1.2818e+07      -  18.0  451s
  7322  7278 1.2819e+07  158  500          - 1.2818e+07      -  18.0  456s
  7325  7280 1.2821e+07  677  500          - 1.2818e+07      -  18.0  461s
  7328  7282 1.2819e+07  418  409          - 1.2818e+07      -  18.0  468s
  7329  7283 1.2819e+07  293  409          - 1.2818e+07      -  18.0  479s
H 7330  6922                    1.470603e+07 1.2818e+07  12.8%  40.0  482s
H 7332  6578                    1.470530e+07 1.2818e+07  12.8%  40.0  483s
  7336  6585 1.2819e+07   31  391 1.4705e+07 1.2818e+07  12.8%  40.0  485s
  7352  6646 1.2819e+07   33  438 1.4705e+07 1.2818e+07  12.8%  40.3  490s
  7411  6706 1.2819e+07   37  430 1.4705e+07 1.2818e+07  12.8%  40.2  496s
H 7490  6463                    1.469547e+07 1.2818e+07  12.8%  40.2  508s
H 7508  6144                    1.469478e+07 1.2818e+07  12.8%  40.1  508s
H 7526  5841                    1.469112e+07 1.2818e+07  12.7%  40.1  508s
H 7544  5552                    1.361914e+07 1.2818e+07  5.88%  40.1  508s

Cutting planes:
  Learned: 2
  Gomory: 356
  Cover: 258
  Implied bound: 99
  Projected implied bound: 52
  Clique: 1
  MIR: 618
  Mixing: 9
  StrongCG: 3
  Flow cover: 407
  RLT: 16
  Relax-and-lift: 120

Explored 7603 nodes (304557 simplex iterations) in 509.25 seconds (202.70 work units)
Thread count was 8 (of 8 available processors)

Solution count 5: 1.36191e+07 1.46911e+07 1.46948e+07 ... 1.47053e+07

Optimal solution found (tolerance 8.00e-02)
Best objective 1.361914438276e+07, best bound 1.281847288956e+07, gap 5.8790%

